40 1 4
155 93 6 996 279 636 174 473 565 399 855 841 720 310 776 378 271 800 595 811 409 294 498 149 361 787 363 32 918 659 122 72 751 127 68 30 763 241 502 327 
639 357 167 359 667 942 737 937 742 331 747 150 624 245 299 985 31 661 17 949 320 139 20 71 265 88 100 28 329 601 354 968 958 521 326 624 463 62 561 204 
392 308 354 16 552 652 1000 583 313 17 531 632 155 551 702 420 638 802 447 967 403 801 934 360 321 259 984 784 320 544 988 712 852 342 727 404 994 727 986 306 
743 517 938 897 68 639 316 706 441 762 672 843 562 605 202 883 863 186 667 183 729 655 894 580 996 621 984 989 347 969 295 89 486 232 985 553 871 301 258 311 
630 9290 1530 6250 5330 3540 5070 3960 5400 1740 5780 2680 8280 4720 8480 8230 920 8310 8120 4380 8000 1060 5260 2850 3370 5110 8370 2070 8110 950 5170 8740 230 6700 4980 5550 230 50 9500 5630 
97280
